&bands
  outdir='./'
  filband='SiBands.out'
/
