&control
    calculation='nscf'
    restart_mode='from_scratch'
    pseudo_dir = '../pseudo'
    outdir='./'
    verbosity = 'high'
!    disk_io='none'
!    tstress=.true.
!    tprnfor=.true.
!    etot_conv_thr=1.0d-04
!    forc_conv_thr=1.0d-03
/
&system
    ibrav=2
!    celldm(1)=5.4307 ! Experimental value
    celldm(1)=10.33520 ! optimized value from previous calculation
    nat=2
    nbnd=8
    ntyp=1
    ecutwfc=70.0
    occupations='fixed'
/
 &electrons
    conv_thr = 2.0d-8
    mixing_beta = 0.7
/
ATOMIC_SPECIES
  Si  28.085  Si.pbe-n-kjpaw_psl.1.0.0.UPF
ATOMIC_POSITIONS {crystal}
  Si  0.00    0.00  0.00
  Si  0.25    0.25  0.25
K_POINTS {tpiba_b}
  8
  0.000  0.000  0.000 10 ! Gamma
  0.500  0.000  0.000 14 ! X
  0.625  0.250  0.625 1  ! U
  0.375  0.375  0.750 18 ! K
  0.000  0.000  0.000 18 ! Gamma
  0.500  0.500  0.500 5 ! L
  0.500  0.250  0.500 5 ! W
  0.500  0.000  0.500 1 ! X

