phonons of Si in Diamond structure 
&inputph
  tr2_ph=1.0d-12
  amass(1)=28.085
  fildyn='Si.dyn'
  outdir='./'
  ldisp=.true.
  reduce_io = .true.
  nq1=4, nq2=4, nq3=4
/
