&input
  fildyn='Si.dyn'
  zasr='simple'
  flfrc='Si444.fc'
/
